p cnf 96 322
c p weight -37 1 0
c p weight 37 -1 0
c p weight 41 6.12323399573676603586882014729198302312846062338790031898128063403419218957424163818359375E-17 0
c p weight -41 1 0
c p weight 42 1 0
c p weight -42 1 0
c p weight -39 1 0
c p weight 39 -1 0
c p weight -43 1 0
c p weight 43 -1 0
c p weight -45 1 0
c p weight 45 -1 0
c p weight -48 1 0
c p weight 48 -1 0
c p weight -51 1 0
c p weight 51 -1 0
c p weight -54 1 0
c p weight 54 -1 0
c p weight -57 1 0
c p weight 57 -1 0
c p weight -60 1 0
c p weight 60 -1 0
c p weight -63 1 0
c p weight 63 -1 0
c p weight -66 1 0
c p weight 66 -1 0
c p weight -69 1 0
c p weight 69 -1 0
c p weight -72 1 0
c p weight 72 -1 0
c p weight -75 1 0
c p weight 75 -1 0
c p weight -78 1 0
c p weight 78 -1 0
c p weight -81 1 0
c p weight 81 -1 0
c p weight -84 1 0
c p weight 84 -1 0
c p weight -87 1 0
c p weight 87 -1 0
c p weight -90 1 0
c p weight 90 -1 0
c p weight -93 1 0
c p weight 93 -1 0
c p weight 96 0.5 0
c p weight -96 1 0
96 0
-35 0
-33 0
-31 0
-29 0
-27 0
-25 0
-23 0
-21 0
-19 0
-17 0
-15 0
-13 0
-11 0
-9 0
-7 0
-5 0
-3 0
-1 0
-37 35 0
-37 36 0
37 -35 -36 0
38 35 -36 0
38 -35 36 0
-38 35 36 0
-38 -35 -36 0
-39 40 0
-39 38 0
-39 -35 0
39 -40 35 -38 0
40 -35 38 0
-40 35 38 0
-41 38 0
40 -41 -35 0
-40 -41 35 0
40 41 35 -38 0
-40 41 -35 -38 0
-42 38 0
40 -42 35 0
-40 -42 -35 0
40 42 -35 -38 0
-40 42 35 -38 0
-43 40 0
-43 38 0
43 -40 -38 0
44 40 -38 0
44 -40 38 0
-44 40 38 0
-44 -40 -38 0
-45 40 0
-45 34 0
-45 33 -44 0
-45 -33 44 0
45 -40 33 44 -34 0
45 -40 -33 -44 -34 0
47 40 -33 0
47 -40 33 0
-47 40 33 0
-47 -40 -33 0
46 44 -34 0
46 -44 34 0
-46 44 34 0
-46 -44 -34 0
-48 47 0
-48 32 0
-48 31 -34 0
-48 -31 34 0
48 -47 31 34 -32 0
48 -47 -31 -34 -32 0
50 47 -31 0
50 -47 31 0
-50 47 31 0
-50 -47 -31 0
49 34 -32 0
49 -34 32 0
-49 34 32 0
-49 -34 -32 0
-51 50 0
-51 30 0
-51 29 -32 0
-51 -29 32 0
51 -50 29 32 -30 0
51 -50 -29 -32 -30 0
53 50 -29 0
53 -50 29 0
-53 50 29 0
-53 -50 -29 0
52 32 -30 0
52 -32 30 0
-52 32 30 0
-52 -32 -30 0
-54 53 0
-54 28 0
-54 27 -30 0
-54 -27 30 0
54 -53 27 30 -28 0
54 -53 -27 -30 -28 0
56 53 -27 0
56 -53 27 0
-56 53 27 0
-56 -53 -27 0
55 30 -28 0
55 -30 28 0
-55 30 28 0
-55 -30 -28 0
-57 56 0
-57 26 0
-57 25 -28 0
-57 -25 28 0
57 -56 25 28 -26 0
57 -56 -25 -28 -26 0
59 56 -25 0
59 -56 25 0
-59 56 25 0
-59 -56 -25 0
58 28 -26 0
58 -28 26 0
-58 28 26 0
-58 -28 -26 0
-60 59 0
-60 24 0
-60 23 -26 0
-60 -23 26 0
60 -59 23 26 -24 0
60 -59 -23 -26 -24 0
62 59 -23 0
62 -59 23 0
-62 59 23 0
-62 -59 -23 0
61 26 -24 0
61 -26 24 0
-61 26 24 0
-61 -26 -24 0
-63 62 0
-63 22 0
-63 21 -24 0
-63 -21 24 0
63 -62 21 24 -22 0
63 -62 -21 -24 -22 0
65 62 -21 0
65 -62 21 0
-65 62 21 0
-65 -62 -21 0
64 24 -22 0
64 -24 22 0
-64 24 22 0
-64 -24 -22 0
-66 65 0
-66 20 0
-66 19 -22 0
-66 -19 22 0
66 -65 19 22 -20 0
66 -65 -19 -22 -20 0
68 65 -19 0
68 -65 19 0
-68 65 19 0
-68 -65 -19 0
67 22 -20 0
67 -22 20 0
-67 22 20 0
-67 -22 -20 0
-69 68 0
-69 18 0
-69 17 -20 0
-69 -17 20 0
69 -68 17 20 -18 0
69 -68 -17 -20 -18 0
71 68 -17 0
71 -68 17 0
-71 68 17 0
-71 -68 -17 0
70 20 -18 0
70 -20 18 0
-70 20 18 0
-70 -20 -18 0
-72 71 0
-72 16 0
-72 15 -18 0
-72 -15 18 0
72 -71 15 18 -16 0
72 -71 -15 -18 -16 0
74 71 -15 0
74 -71 15 0
-74 71 15 0
-74 -71 -15 0
73 18 -16 0
73 -18 16 0
-73 18 16 0
-73 -18 -16 0
-75 74 0
-75 14 0
-75 13 -16 0
-75 -13 16 0
75 -74 13 16 -14 0
75 -74 -13 -16 -14 0
77 74 -13 0
77 -74 13 0
-77 74 13 0
-77 -74 -13 0
76 16 -14 0
76 -16 14 0
-76 16 14 0
-76 -16 -14 0
-78 77 0
-78 12 0
-78 11 -14 0
-78 -11 14 0
78 -77 11 14 -12 0
78 -77 -11 -14 -12 0
80 77 -11 0
80 -77 11 0
-80 77 11 0
-80 -77 -11 0
79 14 -12 0
79 -14 12 0
-79 14 12 0
-79 -14 -12 0
-81 80 0
-81 10 0
-81 9 -12 0
-81 -9 12 0
81 -80 9 12 -10 0
81 -80 -9 -12 -10 0
83 80 -9 0
83 -80 9 0
-83 80 9 0
-83 -80 -9 0
82 12 -10 0
82 -12 10 0
-82 12 10 0
-82 -12 -10 0
-84 83 0
-84 8 0
-84 7 -10 0
-84 -7 10 0
84 -83 7 10 -8 0
84 -83 -7 -10 -8 0
86 83 -7 0
86 -83 7 0
-86 83 7 0
-86 -83 -7 0
85 10 -8 0
85 -10 8 0
-85 10 8 0
-85 -10 -8 0
-87 86 0
-87 6 0
-87 5 -8 0
-87 -5 8 0
87 -86 5 8 -6 0
87 -86 -5 -8 -6 0
89 86 -5 0
89 -86 5 0
-89 86 5 0
-89 -86 -5 0
88 8 -6 0
88 -8 6 0
-88 8 6 0
-88 -8 -6 0
-90 89 0
-90 4 0
-90 3 -6 0
-90 -3 6 0
90 -89 3 6 -4 0
90 -89 -3 -6 -4 0
92 89 -3 0
92 -89 3 0
-92 89 3 0
-92 -89 -3 0
91 6 -4 0
91 -6 4 0
-91 6 4 0
-91 -6 -4 0
-93 92 0
-93 2 0
-93 1 -4 0
-93 -1 4 0
93 -92 1 4 -2 0
93 -92 -1 -4 -2 0
95 92 -1 0
95 -92 1 0
-95 92 1 0
-95 -92 -1 0
94 4 -2 0
94 -4 2 0
-94 4 2 0
-94 -4 -2 0
-95 0
-92 0
-94 0
-89 0
-91 0
-86 0
-88 0
-83 0
-85 0
-80 0
-82 0
-77 0
-79 0
-74 0
-76 0
-71 0
-73 0
-68 0
-70 0
-65 0
-67 0
-62 0
-64 0
-59 0
-61 0
-56 0
-58 0
-53 0
-55 0
-50 0
-52 0
-47 0
-49 0
-40 0
-46 0
